\ENCODING=ISO-8859-1
\Problem name: DansStuff/rnd_3_225_30.mop

Minimize
 C_1_1: 14 x#1#1 + 74 x#1#2 + 73 x#1#3 + 42 x#1#4 + 87 x#1#5 + 59 x#1#6
        + 26 x#1#7 + 83 x#1#8 + 16 x#1#9 + 79 x#1#10 + 36 x#1#11 + 92 x#1#12
        + 2 x#1#13 + x#1#14 + 13 x#1#15 + 90 x#2#1 + 80 x#2#2 + x#2#3
        + 23 x#2#4 + 34 x#2#5 + 61 x#2#6 + 15 x#2#7 + 99 x#2#8 + 21 x#2#9
        + 79 x#2#10 + 60 x#2#11 + 8 x#2#12 + 47 x#2#13 + 30 x#2#14 + 85 x#2#15
        + 43 x#3#1 + 83 x#3#2 + 29 x#3#3 + 8 x#3#4 + 89 x#3#5 + 54 x#3#6
        + 61 x#3#7 + 39 x#3#8 + 30 x#3#9 + 76 x#3#10 + 97 x#3#11 + 8 x#3#12
        + 59 x#3#13 + 68 x#3#14 + 47 x#3#15 + 85 x#4#1 + 75 x#4#2 + x#4#3
        + 24 x#4#4 + 6 x#4#5 + x#4#6 + 35 x#4#7 + 6 x#4#8 + 39 x#4#9
        + 54 x#4#10 + 70 x#4#11 + 97 x#4#12 + 90 x#4#13 + 56 x#4#14 + 71 x#4#15
        + 49 x#5#1 + 67 x#5#2 + 21 x#5#3 + 30 x#5#4 + 17 x#5#5 + 44 x#5#6
        + 96 x#5#7 + 62 x#5#8 + 25 x#5#9 + 80 x#5#10 + 94 x#5#11 + 31 x#5#12
        + 99 x#5#13 + 72 x#5#14 + 18 x#5#15 + 65 x#6#1 + 76 x#6#2 + 47 x#6#3
        + 29 x#6#4 + 96 x#6#5 + 24 x#6#6 + 58 x#6#7 + 42 x#6#8 + 85 x#6#9
        + 3 x#6#10 + 68 x#6#11 + 7 x#6#12 + 42 x#6#13 + 12 x#6#14 + 39 x#6#15
        + 87 x#7#1 + 63 x#7#2 + 87 x#7#3 + 13 x#7#4 + 84 x#7#5 + 4 x#7#6
        + 33 x#7#7 + 46 x#7#8 + 33 x#7#9 + 83 x#7#10 + 47 x#7#11 + 35 x#7#12
        + 10 x#7#13 + 85 x#7#14 + 13 x#7#15 + 66 x#8#1 + 29 x#8#2 + 64 x#8#3
        + 54 x#8#4 + 3 x#8#5 + 73 x#8#6 + 38 x#8#7 + 88 x#8#8 + 61 x#8#9
        + 92 x#8#10 + 73 x#8#11 + 11 x#8#12 + 56 x#8#13 + 19 x#8#14 + 43 x#8#15
        + 93 x#9#1 + 45 x#9#2 + 20 x#9#3 + 64 x#9#4 + 57 x#9#5 + 15 x#9#6
        + 78 x#9#7 + 90 x#9#8 + 32 x#9#9 + 43 x#9#10 + 19 x#9#11 + 21 x#9#12
        + 19 x#9#13 + 11 x#9#14 + 20 x#9#15 + 38 x#10#1 + 91 x#10#2 + 89 x#10#3
        + 60 x#10#4 + 48 x#10#5 + 30 x#10#6 + 90 x#10#7 + 2 x#10#8 + 33 x#10#9
        + 53 x#10#10 + 91 x#10#11 + 53 x#10#12 + 36 x#10#13 + 3 x#10#14
        + 23 x#10#15 + 4 x#11#1 + 54 x#11#2 + 59 x#11#3 + 48 x#11#4 + 91 x#11#5
        + 90 x#11#6 + 42 x#11#7 + 8 x#11#8 + 29 x#11#9 + 25 x#11#10
        + 82 x#11#11 + 86 x#11#12 + 79 x#11#13 + 42 x#11#14 + 37 x#11#15
        + 72 x#12#1 + 15 x#12#2 + 55 x#12#3 + 39 x#12#4 + 23 x#12#5 + 63 x#12#6
        + 72 x#12#7 + 63 x#12#8 + 99 x#12#9 + 46 x#12#10 + 31 x#12#11
        + 4 x#12#12 + 38 x#12#13 + 21 x#12#14 + 59 x#12#15 + 47 x#13#1
        + 84 x#13#2 + 13 x#13#3 + 41 x#13#4 + 89 x#13#5 + 34 x#13#6 + 34 x#13#7
        + 2 x#13#8 + 93 x#13#9 + 10 x#13#10 + 95 x#13#11 + 12 x#13#12
        + 39 x#13#13 + 28 x#13#14 + 94 x#13#15 + 57 x#14#1 + 85 x#14#2
        + 83 x#14#3 + 89 x#14#4 + 90 x#14#5 + 6 x#14#6 + 53 x#14#7 + 66 x#14#8
        + 98 x#14#9 + 9 x#14#10 + 42 x#14#11 + 31 x#14#12 + 98 x#14#13
        + 32 x#14#14 + 96 x#14#15 + 20 x#15#1 + 76 x#15#2 + 87 x#15#3
        + 13 x#15#4 + 5 x#15#5 + 85 x#15#6 + 92 x#15#7 + 71 x#15#8 + 56 x#15#9
        + 49 x#15#10 + 39 x#15#11 + 16 x#15#12 + 75 x#15#13 + 44 x#15#14
        + 72 x#15#15
Subject To
 rows_1:  x#1#1 + x#1#2 + x#1#3 + x#1#4 + x#1#5 + x#1#6 + x#1#7 + x#1#8 + x#1#9
          + x#1#10 + x#1#11 + x#1#12 + x#1#13 + x#1#14 + x#1#15  = 1
 rows_2:  x#2#1 + x#2#2 + x#2#3 + x#2#4 + x#2#5 + x#2#6 + x#2#7 + x#2#8 + x#2#9
          + x#2#10 + x#2#11 + x#2#12 + x#2#13 + x#2#14 + x#2#15  = 1
 rows_3:  x#3#1 + x#3#2 + x#3#3 + x#3#4 + x#3#5 + x#3#6 + x#3#7 + x#3#8 + x#3#9
          + x#3#10 + x#3#11 + x#3#12 + x#3#13 + x#3#14 + x#3#15  = 1
 rows_4:  x#4#1 + x#4#2 + x#4#3 + x#4#4 + x#4#5 + x#4#6 + x#4#7 + x#4#8 + x#4#9
          + x#4#10 + x#4#11 + x#4#12 + x#4#13 + x#4#14 + x#4#15  = 1
 rows_5:  x#5#1 + x#5#2 + x#5#3 + x#5#4 + x#5#5 + x#5#6 + x#5#7 + x#5#8 + x#5#9
          + x#5#10 + x#5#11 + x#5#12 + x#5#13 + x#5#14 + x#5#15  = 1
 rows_6:  x#6#1 + x#6#2 + x#6#3 + x#6#4 + x#6#5 + x#6#6 + x#6#7 + x#6#8 + x#6#9
          + x#6#10 + x#6#11 + x#6#12 + x#6#13 + x#6#14 + x#6#15  = 1
 rows_7:  x#7#1 + x#7#2 + x#7#3 + x#7#4 + x#7#5 + x#7#6 + x#7#7 + x#7#8 + x#7#9
          + x#7#10 + x#7#11 + x#7#12 + x#7#13 + x#7#14 + x#7#15  = 1
 rows_8:  x#8#1 + x#8#2 + x#8#3 + x#8#4 + x#8#5 + x#8#6 + x#8#7 + x#8#8 + x#8#9
          + x#8#10 + x#8#11 + x#8#12 + x#8#13 + x#8#14 + x#8#15  = 1
 rows_9:  x#9#1 + x#9#2 + x#9#3 + x#9#4 + x#9#5 + x#9#6 + x#9#7 + x#9#8 + x#9#9
          + x#9#10 + x#9#11 + x#9#12 + x#9#13 + x#9#14 + x#9#15  = 1
 rows_10: x#10#1 + x#10#2 + x#10#3 + x#10#4 + x#10#5 + x#10#6 + x#10#7 + x#10#8
          + x#10#9 + x#10#10 + x#10#11 + x#10#12 + x#10#13 + x#10#14 + x#10#15
           = 1
 rows_11: x#11#1 + x#11#2 + x#11#3 + x#11#4 + x#11#5 + x#11#6 + x#11#7 + x#11#8
          + x#11#9 + x#11#10 + x#11#11 + x#11#12 + x#11#13 + x#11#14 + x#11#15
           = 1
 rows_12: x#12#1 + x#12#2 + x#12#3 + x#12#4 + x#12#5 + x#12#6 + x#12#7 + x#12#8
          + x#12#9 + x#12#10 + x#12#11 + x#12#12 + x#12#13 + x#12#14 + x#12#15
           = 1
 rows_13: x#13#1 + x#13#2 + x#13#3 + x#13#4 + x#13#5 + x#13#6 + x#13#7 + x#13#8
          + x#13#9 + x#13#10 + x#13#11 + x#13#12 + x#13#13 + x#13#14 + x#13#15
           = 1
 rows_14: x#14#1 + x#14#2 + x#14#3 + x#14#4 + x#14#5 + x#14#6 + x#14#7 + x#14#8
          + x#14#9 + x#14#10 + x#14#11 + x#14#12 + x#14#13 + x#14#14 + x#14#15
           = 1
 rows_15: x#15#1 + x#15#2 + x#15#3 + x#15#4 + x#15#5 + x#15#6 + x#15#7 + x#15#8
          + x#15#9 + x#15#10 + x#15#11 + x#15#12 + x#15#13 + x#15#14 + x#15#15
           = 1
 cols_1:  x#1#1 + x#2#1 + x#3#1 + x#4#1 + x#5#1 + x#6#1 + x#7#1 + x#8#1 + x#9#1
          + x#10#1 + x#11#1 + x#12#1 + x#13#1 + x#14#1 + x#15#1  = 1
 cols_2:  x#1#2 + x#2#2 + x#3#2 + x#4#2 + x#5#2 + x#6#2 + x#7#2 + x#8#2 + x#9#2
          + x#10#2 + x#11#2 + x#12#2 + x#13#2 + x#14#2 + x#15#2  = 1
 cols_3:  x#1#3 + x#2#3 + x#3#3 + x#4#3 + x#5#3 + x#6#3 + x#7#3 + x#8#3 + x#9#3
          + x#10#3 + x#11#3 + x#12#3 + x#13#3 + x#14#3 + x#15#3  = 1
 cols_4:  x#1#4 + x#2#4 + x#3#4 + x#4#4 + x#5#4 + x#6#4 + x#7#4 + x#8#4 + x#9#4
          + x#10#4 + x#11#4 + x#12#4 + x#13#4 + x#14#4 + x#15#4  = 1
 cols_5:  x#1#5 + x#2#5 + x#3#5 + x#4#5 + x#5#5 + x#6#5 + x#7#5 + x#8#5 + x#9#5
          + x#10#5 + x#11#5 + x#12#5 + x#13#5 + x#14#5 + x#15#5  = 1
 cols_6:  x#1#6 + x#2#6 + x#3#6 + x#4#6 + x#5#6 + x#6#6 + x#7#6 + x#8#6 + x#9#6
          + x#10#6 + x#11#6 + x#12#6 + x#13#6 + x#14#6 + x#15#6  = 1
 cols_7:  x#1#7 + x#2#7 + x#3#7 + x#4#7 + x#5#7 + x#6#7 + x#7#7 + x#8#7 + x#9#7
          + x#10#7 + x#11#7 + x#12#7 + x#13#7 + x#14#7 + x#15#7  = 1
 cols_8:  x#1#8 + x#2#8 + x#3#8 + x#4#8 + x#5#8 + x#6#8 + x#7#8 + x#8#8 + x#9#8
          + x#10#8 + x#11#8 + x#12#8 + x#13#8 + x#14#8 + x#15#8  = 1
 cols_9:  x#1#9 + x#2#9 + x#3#9 + x#4#9 + x#5#9 + x#6#9 + x#7#9 + x#8#9 + x#9#9
          + x#10#9 + x#11#9 + x#12#9 + x#13#9 + x#14#9 + x#15#9  = 1
 cols_10: x#1#10 + x#2#10 + x#3#10 + x#4#10 + x#5#10 + x#6#10 + x#7#10 + x#8#10
          + x#9#10 + x#10#10 + x#11#10 + x#12#10 + x#13#10 + x#14#10 + x#15#10
           = 1
 cols_11: x#1#11 + x#2#11 + x#3#11 + x#4#11 + x#5#11 + x#6#11 + x#7#11 + x#8#11
          + x#9#11 + x#10#11 + x#11#11 + x#12#11 + x#13#11 + x#14#11 + x#15#11
           = 1
 cols_12: x#1#12 + x#2#12 + x#3#12 + x#4#12 + x#5#12 + x#6#12 + x#7#12 + x#8#12
          + x#9#12 + x#10#12 + x#11#12 + x#12#12 + x#13#12 + x#14#12 + x#15#12
           = 1
 cols_13: x#1#13 + x#2#13 + x#3#13 + x#4#13 + x#5#13 + x#6#13 + x#7#13 + x#8#13
          + x#9#13 + x#10#13 + x#11#13 + x#12#13 + x#13#13 + x#14#13 + x#15#13
           = 1
 cols_14: x#1#14 + x#2#14 + x#3#14 + x#4#14 + x#5#14 + x#6#14 + x#7#14 + x#8#14
          + x#9#14 + x#10#14 + x#11#14 + x#12#14 + x#13#14 + x#14#14 + x#15#14
           = 1
 cols_15: x#1#15 + x#2#15 + x#3#15 + x#4#15 + x#5#15 + x#6#15 + x#7#15 + x#8#15
          + x#9#15 + x#10#15 + x#11#15 + x#12#15 + x#13#15 + x#14#15 + x#15#15
           = 1
End
